11513
0 0 0 0 1 1 0 1 1 1 1 1 0 1 0 0 0 0 1 0 1 1 1 0 0 0 0 1 0 0
21 10 21 4 20 8 13 18 21 13 8 13 18 7 5 21 27 8 7 5 10 27 27 7 5 10 20 8 5 9 4 13 11 9 4 21 27 21 11 5 11 13 22 10 4 10 27 8 5 7 22 13 8 7 13 22 27 8 7 11 22 13 8 7 9 4 13 11 7 4 8 22 18 18 4 10 7 8 7 7 4 13 10 10 4 21 10 27 11 5 4 13 8 9 4 8 8 18 21 5 4 4 10 9 4 10 8 8 7 9 10 20 8 5 7 22 8 8 7 5 27 20 8 5 13 22 27 8 13 13 10 13 8 7 13 21 18 8 5 11 8 13 18 7 4 22 20 8 5 11